n_machines = 5;
n_resources = 7;
n_jobs = 70;
horizon = 3726;
LB = 745;
n_jobs_per_resource = [10, 10, 10, 10, 10, 10, 10];
duration = [56, 92, 23, 82, 81, 94, 37, 94, 53, 9, 60, 38, 27, 72, 78, 47, 76, 43, 43, 22, 81, 51, 91, 75, 84, 48, 63, 88, 89, 4, 44, 98, 96, 84, 12, 56, 37, 1, 29, 13, 41, 63, 12, 84, 71, 42, 43, 75, 4, 46, 64, 85, 77, 3, 70, 25, 22, 15, 61, 20, 68, 42, 38, 91, 91, 24, 9, 53, 23, 93]